c ind 1 22 23 24 25 26 27 28 29 30 31 32 33 34 35 36 37 38 39 40 41 42 43 44 45 46 0
p cnf 91 177
-5 -7 0
6 -7 0
5 -6 7 0
-5 -8 0
-6 -8 0
5 6 8 0
-5 -10 0
-6 -10 0
9 -10 0
5 6 -9 10 0
-5 -11 0
-6 -11 0
-9 -11 0
5 6 9 11 0
-5 -13 0
-6 -13 0
-9 -13 0
12 -13 0
5 6 9 -12 13 0
-5 -14 0
-6 -14 0
-9 -14 0
-12 -14 0
5 6 9 12 14 0
-5 -16 0
-6 -16 0
-9 -16 0
-12 -16 0
15 -16 0
5 6 9 12 -15 16 0
-5 -17 0
-6 -17 0
-9 -17 0
-12 -17 0
-15 -17 0
5 6 9 12 15 17 0
-5 -19 0
-6 -19 0
-9 -19 0
-12 -19 0
-15 -19 0
18 -19 0
5 6 9 12 15 -18 19 0
-5 -20 0
-6 -20 0
-9 -20 0
-12 -20 0
-15 -20 0
-18 -20 0
5 6 9 12 15 18 20 0
21 0
22 -47 0
-22 47 0
-1 -47 -48 0
1 47 -48 0
-1 47 48 0
1 -47 48 0
-48 0
28 -49 0
-28 49 0
1 -51 0
49 -51 0
-1 -49 51 0
-2 -51 -52 0
2 51 -52 0
-2 51 52 0
2 -51 52 0
-52 0
34 -53 0
-34 53 0
2 -55 0
53 -55 0
-2 -53 55 0
-3 -55 -56 0
3 55 -56 0
-3 55 56 0
3 -55 56 0
-56 0
40 -57 0
-40 57 0
3 -59 0
57 -59 0
-3 -57 59 0
-4 -59 -60 0
4 59 -60 0
-4 59 60 0
4 -59 60 0
-60 0
46 -61 0
-46 61 0
4 -63 0
61 -63 0
-4 -61 63 0
-5 -63 -64 0
5 63 -64 0
-5 63 64 0
5 -63 64 0
-64 0
-28 65 0
28 -65 0
-28 -66 0
28 -66 0
28 67 0
-66 67 0
-28 66 -67 0
-6 -67 -68 0
6 67 -68 0
-6 67 68 0
6 -67 68 0
-68 0
-34 69 0
34 -69 0
-34 -70 0
34 -70 0
34 71 0
-70 71 0
-34 70 -71 0
-9 -71 -72 0
9 71 -72 0
-9 71 72 0
9 -71 72 0
-72 0
-22 73 0
22 -73 0
-22 -74 0
22 -74 0
22 75 0
-74 75 0
-22 74 -75 0
-12 -75 -76 0
12 75 -76 0
-12 75 76 0
12 -75 76 0
-76 0
-40 77 0
40 -77 0
-40 -78 0
40 -78 0
40 79 0
-78 79 0
-40 78 -79 0
-15 -79 -80 0
15 79 -80 0
-15 79 80 0
15 -79 80 0
-80 0
-46 81 0
46 -81 0
-46 -82 0
46 -82 0
46 83 0
-82 83 0
-46 82 -83 0
-18 -83 -84 0
18 83 -84 0
-18 83 84 0
18 -83 84 0
-84 0
-5 0
-6 0
-9 0
-12 0
-15 0
-18 0
-85 -87 -89 0
85 87 -89 0
-85 87 89 0
85 -87 89 0
-86 -88 -90 0
86 88 -90 0
-86 88 90 0
86 -88 90 0
-89 -91 0
-90 -91 0
89 90 91 0
-21 91 0
21 -91 0
c __CPROVER_malloc_is_new_array#1 FALSE
c check::$tmp::tmp_if_expr$1!0@1#1 50
c goto_symex::\guard#1 1
c check::$tmp::tmp_if_expr$1!0@1#2 49
c check::$tmp::tmp_if_expr$1!0@1#3 50
c check::$tmp::tmp_if_expr$1!0@1#4 FALSE
c check::$tmp::tmp_if_expr$1!0@1#5 2
c check::$tmp::tmp_if_expr$2!0@1#1 54
c check::$tmp::tmp_if_expr$2!0@1#2 53
c check::$tmp::tmp_if_expr$2!0@1#3 54
c check::$tmp::tmp_if_expr$2!0@1#4 FALSE
c check::$tmp::tmp_if_expr$2!0@1#5 3
c check::$tmp::tmp_if_expr$3!0@1#1 58
c check::$tmp::tmp_if_expr$3!0@1#2 57
c check::$tmp::tmp_if_expr$3!0@1#3 58
c check::$tmp::tmp_if_expr$3!0@1#4 FALSE
c check::$tmp::tmp_if_expr$3!0@1#5 4
c check::$tmp::tmp_if_expr$4!0@1#1 62
c check::$tmp::tmp_if_expr$4!0@1#2 61
c check::$tmp::tmp_if_expr$4!0@1#3 62
c check::$tmp::tmp_if_expr$4!0@1#4 FALSE
c check::$tmp::tmp_if_expr$4!0@1#5 5
c goto_symex::\guard#2 6
c goto_symex::\guard#3 9
c goto_symex::\guard#4 12
c goto_symex::\guard#5 15
c goto_symex::\guard#6 18
c __CPROVER_thread_id!0#1 FALSE FALSE FALSE FALSE FALSE FALSE FALSE FALSE FALSE FALSE FALSE FALSE FALSE FALSE FALSE FALSE FALSE FALSE FALSE FALSE FALSE FALSE FALSE FALSE FALSE FALSE FALSE FALSE FALSE FALSE FALSE FALSE FALSE FALSE FALSE FALSE FALSE FALSE FALSE FALSE FALSE FALSE FALSE FALSE FALSE FALSE FALSE FALSE FALSE FALSE FALSE FALSE FALSE FALSE FALSE FALSE FALSE FALSE FALSE FALSE FALSE FALSE FALSE FALSE
c __CPROVER_rounding_mode!0#1 FALSE FALSE FALSE FALSE FALSE FALSE FALSE FALSE FALSE FALSE FALSE FALSE FALSE FALSE FALSE FALSE FALSE FALSE FALSE FALSE FALSE FALSE FALSE FALSE FALSE FALSE FALSE FALSE FALSE FALSE FALSE FALSE
c check::1::x!0@1#1 22 23 24 25 26 27 28 29 30 31 32 33 34 35 36 37 38 39 40 41 42 43 44 45 46
c __CPROVER_pipe_count#1 FALSE FALSE FALSE FALSE FALSE FALSE FALSE FALSE FALSE FALSE FALSE FALSE FALSE FALSE FALSE FALSE FALSE FALSE FALSE FALSE FALSE FALSE FALSE FALSE FALSE FALSE FALSE FALSE FALSE FALSE FALSE FALSE
c __CPROVER_deallocated#1 FALSE FALSE FALSE FALSE FALSE FALSE FALSE FALSE FALSE FALSE FALSE FALSE FALSE FALSE FALSE FALSE FALSE FALSE FALSE FALSE FALSE FALSE FALSE FALSE FALSE FALSE FALSE FALSE FALSE FALSE FALSE FALSE FALSE FALSE FALSE FALSE FALSE FALSE FALSE FALSE FALSE FALSE FALSE FALSE FALSE FALSE FALSE FALSE FALSE FALSE FALSE FALSE FALSE FALSE FALSE FALSE FALSE FALSE FALSE FALSE FALSE FALSE FALSE FALSE
c __CPROVER_dead_object#1 FALSE FALSE FALSE FALSE FALSE FALSE FALSE FALSE FALSE FALSE FALSE FALSE FALSE FALSE FALSE FALSE FALSE FALSE FALSE FALSE FALSE FALSE FALSE FALSE FALSE FALSE FALSE FALSE FALSE FALSE FALSE FALSE FALSE FALSE FALSE FALSE FALSE FALSE FALSE FALSE FALSE FALSE FALSE FALSE FALSE FALSE FALSE FALSE FALSE FALSE FALSE FALSE FALSE FALSE FALSE FALSE FALSE FALSE FALSE FALSE FALSE FALSE FALSE FALSE
c __CPROVER_next_thread_id#1 FALSE FALSE FALSE FALSE FALSE FALSE FALSE FALSE FALSE FALSE FALSE FALSE FALSE FALSE FALSE FALSE FALSE FALSE FALSE FALSE FALSE FALSE FALSE FALSE FALSE FALSE FALSE FALSE FALSE FALSE FALSE FALSE FALSE FALSE FALSE FALSE FALSE FALSE FALSE FALSE FALSE FALSE FALSE FALSE FALSE FALSE FALSE FALSE FALSE FALSE FALSE FALSE FALSE FALSE FALSE FALSE FALSE FALSE FALSE FALSE FALSE FALSE FALSE FALSE
c __CPROVER_malloc_object#1 FALSE FALSE FALSE FALSE FALSE FALSE FALSE FALSE FALSE FALSE FALSE FALSE FALSE FALSE FALSE FALSE FALSE FALSE FALSE FALSE FALSE FALSE FALSE FALSE FALSE FALSE FALSE FALSE FALSE FALSE FALSE FALSE FALSE FALSE FALSE FALSE FALSE FALSE FALSE FALSE FALSE FALSE FALSE FALSE FALSE FALSE FALSE FALSE FALSE FALSE FALSE FALSE FALSE FALSE FALSE FALSE FALSE FALSE FALSE FALSE FALSE FALSE FALSE FALSE
c __CPROVER_malloc_size#1 FALSE FALSE FALSE FALSE FALSE FALSE FALSE FALSE FALSE FALSE FALSE FALSE FALSE FALSE FALSE FALSE FALSE FALSE FALSE FALSE FALSE FALSE FALSE FALSE FALSE FALSE FALSE FALSE FALSE FALSE FALSE FALSE FALSE FALSE FALSE FALSE FALSE FALSE FALSE FALSE FALSE FALSE FALSE FALSE FALSE FALSE FALSE FALSE FALSE FALSE FALSE FALSE FALSE FALSE FALSE FALSE FALSE FALSE FALSE FALSE FALSE FALSE FALSE FALSE
c __CPROVER_memory_leak#1 FALSE FALSE FALSE FALSE FALSE FALSE FALSE FALSE FALSE FALSE FALSE FALSE FALSE FALSE FALSE FALSE FALSE FALSE FALSE FALSE FALSE FALSE FALSE FALSE FALSE FALSE FALSE FALSE FALSE FALSE FALSE FALSE FALSE FALSE FALSE FALSE FALSE FALSE FALSE FALSE FALSE FALSE FALSE FALSE FALSE FALSE FALSE FALSE FALSE FALSE FALSE FALSE FALSE FALSE FALSE FALSE FALSE FALSE FALSE FALSE FALSE FALSE FALSE FALSE
